NAME : instanciasCVRP/minimo.txt
TYPE : TSP
COMMENT : instanciasCVRP/minimo.txt (S.Eilon, C.D.T.Watson-Gandy and N.Christofides)
DIMENSION : 5
EDGE_WEIGHT_TYPE : EUC_2D
NODE_COORD_SECTION
0 0 0
1 0 1
2 1 0
3 0 -3
4 -2 0
EOF
